
Gurobi 11.0.3 (linux64) logging started Thu Apr 16 02:52:30 2026

Set parameter LogFile to value "tree/results/ceva/ceva_depth-3_run-2/Full MIP/LogFile_FullModel.txt"
Gurobi Optimizer version 11.0.3 build v11.0.3rc0 (linux64 - "CentOS Linux 7 (Core)")

CPU model: Intel(R) Xeon(R) Platinum 8260 CPU @ 2.40GHz, instruction set [SSE2|AVX|AVX2|AVX512]
Thread count: 96 physical cores, 192 logical processors, using up to 32 threads

Optimize a model with 104189 rows, 72955 columns and 1636277 nonzeros
Model fingerprint: 0x9e76a45c
Model has 10368 general constraints
Variable types: 41714 continuous, 31241 integer (31241 binary)
Coefficient statistics:
  Matrix range     [8e-04, 1e+04]
  Objective range  [8e-04, 1e+04]
  Bounds range     [1e+00, 1e+03]
  RHS range        [1e-04, 1e+03]

User MIP start produced solution with objective -32699.2 (0.48s)
Loaded user MIP start with objective -32699.2

Presolve added 10360 rows and 31104 columns
Presolve time: 2.07s
Presolved: 114549 rows, 104059 columns, 1698585 nonzeros
Presolved model has 31104 SOS constraint(s)
Variable types: 41714 continuous, 62345 integer (62345 binary)

Deterministic concurrent LP optimizer: primal simplex, dual simplex, and barrier
Showing barrier log only...

Root relaxation presolved: 114549 rows, 104059 columns, 1698585 nonzeros

Root barrier log...

Ordering time: 0.06s

Barrier statistics:
 Dense cols : 112
 AA' NZ     : 1.682e+06
 Factor NZ  : 5.330e+06 (roughly 140 MB of memory)
 Factor Ops : 2.727e+08 (less than 1 second per iteration)
 Threads    : 30

                  Objective                Residual
Iter       Primal          Dual         Primal    Dual     Compl     Time
   0  -9.17099606e+04  1.00025374e+09  1.50e+04 1.97e-14  7.97e+05     5s
   1  -5.05174190e+04  1.54879626e+09  5.25e+03 2.99e+01  2.65e+05     5s
   2  -2.13745181e+04  1.53131304e+09  5.35e+02 3.50e+00  3.17e+04     6s
   3  -1.54987511e+04  8.89657676e+08  5.19e+01 4.15e-01  5.53e+03     6s
   4  -2.37774941e+03  1.39861824e+08  3.76e+00 4.02e-02  6.75e+02     7s
   5  -2.39979094e+02  1.64907453e+07  2.23e-01 3.99e-03  7.42e+01     7s
   6  -2.35245111e+01  1.68141790e+06  2.24e-02 4.00e-04  7.41e+00     7s
   7  -1.87628092e+00  1.72692502e+05  2.41e-03 4.11e-05  7.60e-01     8s
   8   3.17948001e-01  2.22780817e+04  3.64e-04 5.30e-06  9.80e-02     8s
   9   9.10869226e-01  4.90507230e+03  3.61e-05 1.13e-06  2.16e-02     8s
  10   8.94154822e-01  7.01222934e+02  3.58e-06 1.58e-07  3.08e-03     9s
  11   9.89352690e-01  7.18308917e+01  3.54e-07 1.58e-08  3.12e-04     9s
  12   9.98935269e-01  8.08791160e+00  3.54e-08 1.58e-09  3.12e-05     9s
  13   9.99893523e-01  1.71524509e+00  3.51e-09 1.58e-10  3.15e-06    10s
  14   9.99989352e-01  1.07152451e+00  3.51e-10 1.58e-11  3.15e-07    10s
  15   9.99998935e-01  1.00721758e+00  3.50e-11 1.58e-12  3.18e-08    11s
  16   9.99999894e-01  1.00072176e+00  3.58e-12 1.58e-13  3.18e-09    11s
  17   9.99999989e-01  1.00007218e+00  6.25e-13 1.58e-14  3.18e-10    11s
  18   9.99999999e-01  1.00000722e+00  4.26e-13 1.42e-14  3.18e-11    12s
  19   1.00000000e+00  1.00000072e+00  4.19e-13 1.59e-16  3.18e-12    13s
  20   1.00000000e+00  1.00000007e+00  4.26e-13 1.59e-17  3.18e-13    13s
  21   1.00000000e+00  1.00000001e+00  4.12e-13 3.47e-18  3.18e-14    13s

Barrier solved model in 21 iterations and 13.28 seconds (7.95 work units)
Optimal objective 1.00000000e+00


Root crossover log...

    4704 DPushes remaining with DInf 0.0000000e+00                13s
       0 DPushes remaining with DInf 0.0000000e+00                13s

   39369 PPushes remaining with PInf 0.0000000e+00                14s
       0 PPushes remaining with PInf 0.0000000e+00                15s

  Push phase complete: Pinf 0.0000000e+00, Dinf 0.0000000e+00     15s


Root simplex log...

Iteration    Objective       Primal Inf.    Dual Inf.      Time
   39373    1.0000000e+00   0.000000e+00   0.000000e+00     15s
   39373    1.0000000e+00   0.000000e+00   0.000000e+00     15s
Concurrent spin time: 0.00s

Solved with barrier

Root relaxation: objective 1.000000e+00, 39373 iterations, 11.74 seconds (6.35 work units)
Total elapsed time = 54.05s (DegenMoves)

    Nodes    |    Current Node    |     Objective Bounds      |     Work
 Expl Unexpl |  Obj  Depth IntInf | Incumbent    BestBd   Gap | It/Node Time

     0     0    1.00000    0 9409 -32699.209    1.00000   100%     -   54s
     0     2    1.00000    0 9409 -32699.209    1.00000   100%     -  252s
H    1     4                    -32699.20907    1.00000   100%  2568  444s
     3     8    1.00000    2 9214 -32699.209    1.00000   100%  3579  446s
    15    32    1.00000    4 8107 -32699.209    1.00000   100%  9501 2635s
    31    64    1.00000    5 8147 -32699.209    1.00000   100% 15151 2994s
H   35    64                    -32699.20907    1.00000   100% 13428 2994s
H   47    64                    -32699.20907    1.00000   100% 10116 2995s
    63    96    1.00000    6 6636 -32699.209    1.00000   100%  8799 3600s

Explored 95 nodes (1342461 simplex iterations) in 3600.79 seconds (6874.84 work units)
Thread count was 32 (of 192 available processors)

Solution count 4: -32699.2 -32699.2 -32699.2 -32699.2 

Time limit reached
Best objective -3.269920906628e+04, best bound 1.000000000000e+00, gap 100.0031%

User-callback calls 902723, time in user-callback 4.70 sec
